LAMMPS (5 Oct 2015-ICMS)
WARNING: OMP_NUM_THREADS environment is not set. (../comm.cpp:90)
  using 1 OpenMP thread(s) per MPI task
units           lj
atom_style full
dimension  3
neighbor        0.5 bin
neigh_modify    every 1 delay 3 check yes
boundary p p p

read_data       test.dat
  orthogonal box = (-15 -15 -15) to (15 15 15)
  1 by 1 by 1 MPI processor grid
  reading atoms ...
  10 atoms
  scanning bonds ...
  1 = max bonds/atom
  reading bonds ...
  9 bonds
  2 = max # of 1-2 neighbors
  2 = max # of 1-3 neighbors
  4 = max # of 1-4 neighbors
  6 = max # of special neighbors

group fixed type 1
1 atoms in group fixed
group dep type 2
8 atoms in group dep
group moving type 3
1 atoms in group moving

velocity fixed set 0.0 0.0 0.0 sum no units box
velocity dep create 1.0 482748 dist uniform
velocity moving set 0.0 0.0 0.0 sum no units box


pair_style      lj/cut 2.5
pair_modify     shift yes
pair_coeff      * * 0.34 2.5

bond_style	fene
bond_coeff	1 30.0 1.5 1.0 1.0

fix 1 fixed setforce 0.0 0.0 0.0
#fix 2 moving setforce 0.0 0.0 10.0
fix 2 moving aveforce 0.0 0.0 10.0
fix 3 dep langevin 1.0 1.0 1.0 12345
fix 4 all nve

timestep        0.005
thermo          50
thermo_style    one

# dump 1 moving custom 1 my.forces tag fx fy fz
dump 2 all atom  1 test.atom
dump_modify 2 image yes scale yes flush yes

run 5000
WARNING: Use special bonds = 0,1,1 with bond style fene (../bond_fene.cpp:188)
Neighbor list info ...
  1 neighbor list requests
  update every 1 steps, delay 3 steps, check yes
  max neighbors/atom: 2000, page size: 100000
  master list distance cutoff = 3
  ghost atom cutoff = 3
  binsize = 1.5 -> bins = 20 20 20
Memory usage per processor = 5.0095 Mbytes
Step Temp E_pair E_mol TotEng Press 
       0   0.77777778            0     18.75402     19.80402 -0.0030740741 
      50   0.50124158            0    19.173209    19.849885 -0.002437326 
     100   0.98358134            0    18.690913    20.018748 -0.0017129403 
     150   0.59874467            0    18.484573    19.292878 -0.00050484395 
     200   0.71995738            0    18.544694    19.516637 -0.00018831676 
     250   0.67077544            0    18.496139    19.401686 -0.00041881159 
     300   0.82302716            0     18.52654    19.637626 0.00017018897 
     350   0.63278829            0    18.957148    19.811412 -0.00074286504 
     400   0.77233066            0     18.70264    19.745287 -0.0013128095 
     450    1.0135006            0    18.841937    20.210163 -0.0020038355 
     500    1.1492871            0    18.499944    20.051481 -0.0011227771 
     550   0.99726345            0    18.866851    20.213156 -0.0017120937 
     600    1.3631411            0    18.491727    20.331968 -0.0011749765 
     650    1.1374803            0    18.794355    20.329953 -7.8653842e-005 
     700   0.87350666            0    19.253543    20.432777 -0.0028308284 
     750    1.2221975            0    18.928113    20.578079 -0.0012990999 
     800    1.0653214            0    19.080334    20.518518 -0.0005546756 
     850   0.75803799            0    18.824014    19.847366 0.00053297521 
     900   0.69545982            0    18.914874    19.853745 0.0010475614 
     950   0.78147198            0    18.483367    19.538354 -0.00044496388 
    1000   0.92925329            0    18.710452    19.964944 -0.0020271635 
    1050   0.69553399            0    18.619689     19.55866 -0.0013149153 
    1100   0.80027274            0    18.527957    19.608325 -0.0015728726 
    1150    0.6399717            0    18.993629    19.857591 -0.00094630746 
    1200   0.83915558            0    18.459491    19.592351 -0.00057276312 
    1250   0.70978397            0    18.539889    19.498097 -0.0012558108 
    1300   0.58225704            0    18.951933     19.73798 -0.0013806164 
    1350   0.86533737            0    18.636593    19.804798 -0.00040161093 
    1400   0.98787055            0    18.562415    19.896041 7.2025762e-005 
    1450   0.77330027            0    18.666047    19.710002 -0.00054062344 
    1500   0.79282068            0    18.897486    19.967794 -0.0015808907 
    1550   0.78139817            0     19.04452    20.099407 -0.0021827404 
    1600   0.81648434            0    18.912811    20.015065 -0.0026527405 
    1650   0.98564332            0     19.19444    20.525059 -0.0025750255 
    1700     1.248658            0    18.518479    20.204168 -0.0015359563 
    1750    0.8613661            0    18.481228    19.644073 -0.00096308407 
    1800   0.60620803            0    18.665989     19.48437 -0.0011572755 
    1850   0.70160462            0    18.748985    19.696151 -0.001051704 
    1900   0.58867984            0      18.6842    19.478918 -0.0011011813 
    1950   0.63288583            0    18.757656    19.612052 -0.0008119877 
    2000   0.99099224            0    18.527515    19.865355 -0.0010461073 
    2050   0.61891532            0     18.53841    19.373946 -0.00071614682 
    2100    0.4867107            0     18.62558    19.282639 0.00033250312 
    2150   0.85926062            0    18.557995    19.717996 -0.0013624208 
    2200   0.96650178            0    18.656433    19.961211 -0.0018246312 
    2250   0.65738495            0    19.230132    20.117602 -0.0029864772 
    2300     1.207098            0    18.839409    20.468991 -0.001492792 
    2350    1.2729396            0    18.470666    20.189135 -0.00021263629 
    2400   0.58707178            0    18.926137    19.718684 -0.0022671466 
    2450    1.1435712            0    18.526979      20.0708 0.00015287692 
    2500   0.94067992            0    18.662481    19.932399 0.00058604037 
    2550   0.76212861            0    19.113185    20.142059 -0.00094172917 
    2600    1.0015501            0    18.566437    19.918529 -0.0020939888 
    2650    1.0808145            0     18.63588     20.09498 -0.0006768357 
    2700    1.4382872            0    18.441425    20.383112 -0.00035834225 
    2750    1.5142265            0    18.611702    20.655908 -0.00097900588 
    2800    1.2223041            0    18.556743    20.206853 -0.00051812223 
    2850    1.2357264            0    18.718331    20.386562 -0.0015645728 
    2900     1.224666            0     18.90268    20.555979 -0.0017208696 
    2950    1.0076104            0      18.6916    20.051874 -0.00012423215 
    3000    1.0191848            0    18.375583    19.751483 -8.2188923e-005 
    3050   0.98361178            0    18.581227    19.909103 -0.0010695522 
    3100    1.3529378            0    19.097966    20.924432 -0.0020196294 
    3150    1.2693235            0    19.403263     21.11685 -0.0027872021 
    3200    1.0741781            0    19.090351    20.540491 -0.0014653397 
    3250   0.83679913            0    18.632219    19.761898 -0.0010442976 
    3300   0.77021373            0    18.888848    19.928637 -0.00045890114 
    3350   0.83063094            0    18.641517    19.762868  0.001716174 
    3400   0.88076131            0    18.626825    19.815853 -0.00016848488 
    3450   0.98380946            0     19.00448    20.332623  -0.00285722 
    3500    1.0788199            0    18.822708    20.279115 -0.00086040348 
    3550   0.95646658            0    19.104496    20.395726 -0.00069788298 
    3600    1.3443573            0    18.538012    20.352895 -0.00080110522 
    3650   0.78085869            0    18.492824    19.546983 0.00097573175 
    3700   0.78631117            0    18.464979    19.526499 3.0186398e-005 
    3750   0.97567674            0    18.563201    19.880365 -0.001430746 
    3800   0.80466686            0    19.296258    20.382559 -0.0027688129 
    3850    1.0072554            0    19.280036    20.639831 -0.0032247782 
    3900   0.92095038            0    18.818058    20.061341 -0.0029172051 
    3950   0.99380927            0    18.765021    20.106664 -0.00010287719 
    4000   0.80190297            0    18.791908    19.874477 -0.0014707845 
    4050    1.3216311            0    18.913209    20.697411 -0.0013931561 
    4100    1.2762478            0    19.114177    20.837112 -0.0010782337 
    4150    1.3495732            0    18.942522    20.764446 -0.00016016957 
    4200   0.94881979            0    18.782601    20.063508 -0.00070771528 
    4250   0.79427452            0    18.972617    20.044888 -8.5633022e-005 
    4300   0.59609806            0    18.820857    19.625589 0.00045601984 
    4350    0.8782902            0    18.847818     20.03351 0.00075261996 
    4400    1.0420383            0    18.843612    20.250363 -0.0013096269 
    4450   0.83539652            0    18.832182    19.959967 -0.00075512186 
    4500   0.97084556            0    18.496478    19.807119 0.00039291822 
    4550   0.60454357            0    19.102867    19.919001 0.00049541269 
    4600    1.0082288            0    18.539152    19.900261 -0.00058010392 
    4650    1.1641491            0    19.085791    20.657392 -0.0014000106 
    4700    1.2744297            0    18.633578    20.354058 -0.0012957165 
    4750    1.1997655            0    18.795525    20.415208 -0.0023778033 
    4800    1.0376474            0    18.363432    19.764256 -0.00048911918 
    4850   0.72843896            0    18.724339    19.707732 -0.002665585 
    4900    0.7679033            0    18.620515    19.657184 -0.0022686134 
    4950   0.68774192            0    18.469999    19.398451 -0.00057741587 
    5000   0.56419895            0    18.478227    19.239896 0.0012187071 
Loop time of 0.508029 on 1 procs for 5000 steps with 10 atoms

Performance: 4251725.327 tau/day, 9841.957 timesteps/s
52.2% CPU use with 1 MPI tasks x 1 OpenMP threads

MPI task timing breakdown:
Section |  min time  |  avg time  |  max time  |%varavg| %total
---------------------------------------------------------------
Pair    |-7.3533e-006|-7.3533e-006|-7.3533e-006|   0.0 | -0.00
Bond    | 0.00099265 | 0.00099265 | 0.00099265 |   0.0 |  0.20
Neigh   | 0.0020003  | 0.0020003  | 0.0020003  |   0.0 |  0.39
Comm    | 0.0039852  | 0.0039852  | 0.0039852  |   0.0 |  0.78
Output  | 0.45802    | 0.45802    | 0.45802    |   0.0 | 90.16
Modify  | 0.0089848  | 0.0089848  | 0.0089848  |   0.0 |  1.77
Other   |            | 0.03405    |            |       |  6.70

Nlocal:    10 ave 10 max 10 min
Histogram: 1 0 0 0 0 0 0 0 0 0
Nghost:    0 ave 0 max 0 min
Histogram: 1 0 0 0 0 0 0 0 0 0
Neighs:    0 ave 0 max 0 min
Histogram: 1 0 0 0 0 0 0 0 0 0

Total # of neighbors = 0
Ave neighs/atom = 0
Ave special neighs/atom = 4.8
Neighbor list builds = 215
Dangerous builds = 0



Total wall time: 0:00:00
